benchmarks_CP/INST_36x36/45/inst36x36_45_29.dzn
S=6;
start=[|
-1,	-1,	26,	-1,	1,	-1,	5,	27,	-1,	13,	-1,	-1,	14,	-1,	-1,	-1,	8,	-1,	30,	-1,	23,	12,	-1,	29,	18,	11,	17,	-1,	-1,	-1,	7,	31,	16,	21,	-1,	-1|
-1,	14,	-1,	-1,	-1,	-1,	-1,	-1,	-1,	3,	32,	-1,	-1,	-1,	36,	-1,	-1,	-1,	-1,	20,	5,	-1,	13,	-1,	12,	1,	29,	7,	25,	-1,	-1,	-1,	-1,	-1,	-1,	-1|
13,	-1,	-1,	30,	33,	12,	15,	34,	-1,	6,	-1,	14,	18,	-1,	-1,	19,	26,	22,	-1,	8,	25,	2,	16,	-1,	-1,	-1,	31,	-1,	-1,	21,	36,	27,	-1,	-1,	-1,	5|
-1,	6,	23,	21,	35,	-1,	-1,	22,	-1,	-1,	-1,	12,	-1,	32,	-1,	-1,	29,	3,	26,	-1,	10,	-1,	-1,	-1,	33,	15,	8,	-1,	24,	2,	25,	18,	-1,	-1,	13,	1|
-1,	-1,	-1,	-1,	11,	24,	29,	-1,	31,	21,	7,	35,	20,	23,	-1,	17,	-1,	-1,	6,	-1,	-1,	14,	-1,	-1,	26,	-1,	-1,	4,	-1,	-1,	8,	-1,	10,	-1,	2,	19|
17,	2,	-1,	18,	31,	5,	8,	26,	30,	-1,	-1,	28,	-1,	35,	-1,	16,	-1,	-1,	-1,	-1,	32,	-1,	-1,	-1,	-1,	-1,	6,	-1,	19,	14,	9,	-1,	12,	15,	20,	24|
-1,	11,	-1,	-1,	-1,	-1,	-1,	10,	9,	-1,	-1,	-1,	28,	-1,	22,	-1,	-1,	21,	-1,	-1,	-1,	-1,	20,	-1,	-1,	-1,	-1,	17,	31,	1,	-1,	12,	2,	3,	-1,	-1|
25,	-1,	12,	-1,	-1,	6,	23,	-1,	1,	22,	-1,	36,	8,	31,	33,	-1,	-1,	7,	-1,	29,	-1,	-1,	-1,	-1,	2,	-1,	9,	-1,	-1,	-1,	-1,	16,	-1,	-1,	-1,	10|
26,	-1,	2,	-1,	-1,	21,	-1,	32,	27,	8,	-1,	-1,	34,	-1,	-1,	-1,	-1,	-1,	18,	-1,	-1,	3,	28,	-1,	36,	29,	-1,	-1,	5,	-1,	11,	30,	33,	17,	-1,	31|
24,	31,	15,	33,	-1,	-1,	30,	-1,	3,	-1,	6,	-1,	5,	2,	16,	1,	-1,	-1,	-1,	-1,	-1,	26,	10,	17,	7,	-1,	22,	-1,	34,	-1,	-1,	-1,	-1,	8,	-1,	36|
3,	-1,	-1,	-1,	-1,	16,	-1,	-1,	11,	17,	-1,	7,	-1,	-1,	-1,	-1,	24,	-1,	-1,	6,	-1,	35,	12,	-1,	-1,	-1,	-1,	-1,	21,	20,	15,	5,	-1,	-1,	-1,	-1|
-1,	-1,	-1,	-1,	34,	10,	-1,	-1,	-1,	-1,	16,	-1,	17,	-1,	-1,	-1,	-1,	-1,	-1,	-1,	-1,	4,	-1,	36,	-1,	-1,	3,	30,	-1,	-1,	-1,	29,	-1,	22,	-1,	-1|
-1,	9,	1,	-1,	20,	2,	-1,	-1,	-1,	10,	13,	6,	-1,	-1,	23,	-1,	16,	34,	-1,	4,	-1,	-1,	-1,	-1,	14,	-1,	-1,	-1,	-1,	-1,	-1,	-1,	-1,	-1,	24,	-1|
-1,	-1,	-1,	-1,	27,	-1,	-1,	4,	-1,	-1,	36,	31,	-1,	-1,	1,	-1,	-1,	-1,	7,	17,	-1,	-1,	-1,	-1,	-1,	-1,	34,	-1,	3,	-1,	-1,	10,	5,	25,	-1,	-1|
15,	23,	-1,	29,	16,	-1,	1,	-1,	21,	-1,	30,	24,	-1,	25,	-1,	-1,	31,	-1,	-1,	-1,	-1,	-1,	-1,	-1,	-1,	9,	-1,	-1,	-1,	-1,	34,	17,	19,	7,	-1,	28|
-1,	-1,	-1,	4,	-1,	-1,	-1,	-1,	7,	-1,	11,	-1,	-1,	-1,	-1,	-1,	35,	-1,	-1,	-1,	-1,	-1,	25,	-1,	20,	18,	2,	-1,	8,	36,	21,	3,	31,	-1,	-1,	9|
-1,	-1,	-1,	5,	-1,	3,	34,	35,	-1,	2,	-1,	-1,	-1,	17,	18,	-1,	-1,	-1,	-1,	-1,	22,	-1,	23,	-1,	-1,	4,	-1,	-1,	-1,	-1,	-1,	-1,	-1,	20,	32,	30|
36,	32,	8,	-1,	-1,	34,	-1,	9,	15,	25,	-1,	-1,	27,	3,	-1,	-1,	-1,	-1,	14,	26,	35,	30,	-1,	-1,	-1,	-1,	13,	19,	10,	24,	-1,	22,	-1,	4,	-1,	-1|
6,	26,	10,	2,	17,	25,	21,	24,	35,	-1,	-1,	27,	-1,	-1,	14,	-1,	18,	-1,	9,	-1,	4,	8,	3,	-1,	-1,	-1,	-1,	1,	36,	33,	-1,	19,	-1,	12,	30,	-1|
22,	-1,	20,	11,	3,	19,	-1,	-1,	-1,	-1,	-1,	33,	-1,	-1,	31,	15,	-1,	-1,	-1,	-1,	1,	29,	-1,	-1,	9,	-1,	18,	24,	-1,	-1,	28,	-1,	-1,	10,	-1,	17|
-1,	-1,	9,	-1,	-1,	33,	-1,	11,	-1,	-1,	26,	-1,	-1,	-1,	-1,	20,	-1,	-1,	-1,	21,	-1,	-1,	19,	-1,	-1,	17,	-1,	-1,	28,	-1,	18,	-1,	-1,	32,	-1,	-1|
-1,	-1,	-1,	-1,	-1,	28,	-1,	-1,	10,	4,	-1,	30,	26,	7,	-1,	9,	1,	-1,	27,	-1,	16,	-1,	-1,	-1,	23,	25,	5,	3,	15,	-1,	-1,	-1,	8,	24,	29,	-1|
27,	29,	-1,	15,	14,	1,	9,	-1,	-1,	-1,	23,	34,	-1,	-1,	25,	-1,	-1,	-1,	28,	2,	20,	17,	-1,	32,	8,	-1,	-1,	-1,	-1,	-1,	-1,	-1,	-1,	-1,	-1,	-1|
23,	-1,	-1,	8,	-1,	-1,	-1,	-1,	-1,	29,	15,	-1,	6,	-1,	4,	-1,	3,	-1,	22,	-1,	13,	11,	26,	10,	21,	2,	16,	-1,	20,	-1,	-1,	-1,	-1,	-1,	-1,	-1|
-1,	1,	-1,	-1,	2,	-1,	18,	14,	19,	-1,	-1,	-1,	16,	33,	-1,	7,	-1,	-1,	-1,	-1,	34,	28,	8,	-1,	-1,	5,	26,	22,	-1,	-1,	20,	-1,	27,	36,	-1,	-1|
5,	-1,	-1,	-1,	4,	17,	28,	31,	-1,	-1,	-1,	-1,	-1,	8,	19,	10,	22,	12,	-1,	-1,	-1,	-1,	15,	20,	24,	-1,	36,	-1,	6,	25,	-1,	-1,	-1,	23,	11,	-1|
31,	28,	30,	6,	21,	-1,	10,	-1,	-1,	-1,	-1,	-1,	1,	-1,	-1,	-1,	-1,	-1,	29,	13,	-1,	-1,	32,	2,	-1,	3,	33,	-1,	-1,	8,	-1,	-1,	7,	16,	-1,	-1|
-1,	-1,	-1,	-1,	-1,	-1,	36,	-1,	-1,	-1,	-1,	-1,	-1,	21,	-1,	-1,	-1,	31,	1,	-1,	17,	23,	7,	9,	-1,	14,	-1,	27,	35,	-1,	-1,	-1,	13,	-1,	-1,	25|
20,	-1,	36,	-1,	-1,	11,	-1,	16,	-1,	27,	9,	-1,	-1,	-1,	-1,	-1,	17,	14,	4,	19,	-1,	22,	35,	12,	-1,	-1,	1,	-1,	-1,	10,	26,	-1,	18,	-1,	-1,	-1|
19,	33,	-1,	-1,	-1,	15,	35,	-1,	8,	-1,	29,	11,	36,	-1,	-1,	25,	23,	6,	5,	-1,	-1,	10,	30,	14,	-1,	-1,	28,	-1,	-1,	-1,	24,	21,	4,	31,	1,	2|
35,	3,	-1,	36,	9,	23,	26,	-1,	29,	19,	-1,	-1,	-1,	20,	6,	14,	30,	-1,	-1,	34,	-1,	16,	27,	-1,	-1,	-1,	24,	-1,	33,	18,	12,	-1,	15,	2,	-1,	4|
-1,	21,	-1,	-1,	-1,	-1,	27,	5,	34,	9,	-1,	-1,	-1,	-1,	2,	31,	-1,	-1,	10,	7,	-1,	-1,	-1,	15,	17,	12,	-1,	-1,	-1,	-1,	23,	36,	25,	6,	-1,	-1|
12,	7,	-1,	10,	-1,	-1,	17,	13,	-1,	-1,	-1,	23,	-1,	-1,	21,	-1,	25,	-1,	-1,	-1,	-1,	-1,	-1,	-1,	-1,	-1,	35,	-1,	-1,	32,	-1,	24,	-1,	-1,	16,	-1|
-1,	-1,	-1,	20,	-1,	30,	11,	12,	32,	-1,	-1,	21,	-1,	36,	-1,	-1,	-1,	8,	-1,	5,	-1,	-1,	-1,	13,	-1,	-1,	25,	26,	4,	9,	-1,	-1,	-1,	-1,	-1,	34|
14,	-1,	-1,	16,	24,	-1,	6,	7,	4,	-1,	18,	-1,	-1,	19,	-1,	13,	32,	-1,	12,	35,	33,	-1,	-1,	-1,	-1,	36,	23,	15,	-1,	-1,	-1,	8,	30,	-1,	-1,	-1|
-1,	-1,	34,	-1,	25,	-1,	-1,	30,	-1,	-1,	8,	-1,	12,	1,	-1,	-1,	15,	16,	-1,	23,	-1,	-1,	29,	-1,	-1,	27,	-1,	-1,	14,	6,	-1,	-1,	17,	-1,	-1,	-1|];
